&inputpp
    outdir='./work'
    prefix='pwscf',
    seedname = 'pwscf'
    irr_bz = .true.
/
