&inputpp
    outdir='./work'
    prefix='pwscf',
    seedname = 'pwscf'
    nscf_sym = .true.
/
