num_bands         =  16
num_wann          =   7


! window is set to [-10 eV:+10 eV] with respect to Fermi level
dis_win_min =  -200
dis_win_max =   200
dis_froz_min =  -200
dis_froz_max =  19.7117

begin projections
f= 0.250, 0.250, 0.250: s
f= 0.750, 0.750, 0.750: s
f= 0.000, 0.000, 0.000: d
end projections

write_hr = .true.
bands_plot = .true.

wannier_plot_supercell = 3

begin kpoint_path
L   0.50000     0.50000     0.50000   G   0.00000     0.00000     0.00000
G   0.00000     0.00000     0.00000   X   0.50000     0.00000     0.50000
X   0.50000     0.00000     0.50000   W   0.50000     0.25000     0.75000
W   0.50000     0.25000     0.75000   L   0.50000     0.50000     0.50000
L   0.50000     0.50000     0.50000   K   0.75000     0.37500     0.37500
K   0.75000     0.37500     0.37500   G   0.00000     0.00000     0.00000
end kpoint_path

begin unit_cell_cart
bohr
-3.411 0.0 3.411
0.0 3.411  3.411
-3.411 3.411 0.0
end unit_cell_cart

begin atoms_frac
Cu 0.0 0.0 0.0
end atoms_frac

mp_grid           = 8 8 8

begin kpoints
   0.0000000000    0.0000000000    0.0000000000    0.0019531250
   0.0000000000    0.0000000000    0.1250000000    0.0019531250
   0.0000000000    0.0000000000    0.2500000000    0.0019531250
   0.0000000000    0.0000000000    0.3750000000    0.0019531250
   0.0000000000    0.0000000000   -0.5000000000    0.0019531250
   0.0000000000    0.0000000000   -0.3750000000    0.0019531250
   0.0000000000    0.0000000000   -0.2500000000    0.0019531250
   0.0000000000    0.0000000000   -0.1250000000    0.0019531250
   0.0000000000    0.1250000000    0.0000000000    0.0019531250
   0.0000000000    0.1250000000    0.1250000000    0.0019531250
   0.0000000000    0.1250000000    0.2500000000    0.0019531250
   0.0000000000    0.1250000000    0.3750000000    0.0019531250
   0.0000000000    0.1250000000   -0.5000000000    0.0019531250
   0.0000000000    0.1250000000   -0.3750000000    0.0019531250
   0.0000000000    0.1250000000   -0.2500000000    0.0019531250
   0.0000000000    0.1250000000   -0.1250000000    0.0019531250
   0.0000000000    0.2500000000    0.0000000000    0.0019531250
   0.0000000000    0.2500000000    0.1250000000    0.0019531250
   0.0000000000    0.2500000000    0.2500000000    0.0019531250
   0.0000000000    0.2500000000    0.3750000000    0.0019531250
   0.0000000000    0.2500000000   -0.5000000000    0.0019531250
   0.0000000000    0.2500000000   -0.3750000000    0.0019531250
   0.0000000000    0.2500000000   -0.2500000000    0.0019531250
   0.0000000000    0.2500000000   -0.1250000000    0.0019531250
   0.0000000000    0.3750000000    0.0000000000    0.0019531250
   0.0000000000    0.3750000000    0.1250000000    0.0019531250
   0.0000000000    0.3750000000    0.2500000000    0.0019531250
   0.0000000000    0.3750000000    0.3750000000    0.0019531250
   0.0000000000    0.3750000000   -0.5000000000    0.0019531250
   0.0000000000    0.3750000000   -0.3750000000    0.0019531250
   0.0000000000    0.3750000000   -0.2500000000    0.0019531250
   0.0000000000    0.3750000000   -0.1250000000    0.0019531250
   0.0000000000   -0.5000000000    0.0000000000    0.0019531250
   0.0000000000   -0.5000000000    0.1250000000    0.0019531250
   0.0000000000   -0.5000000000    0.2500000000    0.0019531250
   0.0000000000   -0.5000000000    0.3750000000    0.0019531250
   0.0000000000   -0.5000000000   -0.5000000000    0.0019531250
   0.0000000000   -0.5000000000   -0.3750000000    0.0019531250
   0.0000000000   -0.5000000000   -0.2500000000    0.0019531250
   0.0000000000   -0.5000000000   -0.1250000000    0.0019531250
   0.0000000000   -0.3750000000    0.0000000000    0.0019531250
   0.0000000000   -0.3750000000    0.1250000000    0.0019531250
   0.0000000000   -0.3750000000    0.2500000000    0.0019531250
   0.0000000000   -0.3750000000    0.3750000000    0.0019531250
   0.0000000000   -0.3750000000   -0.5000000000    0.0019531250
   0.0000000000   -0.3750000000   -0.3750000000    0.0019531250
   0.0000000000   -0.3750000000   -0.2500000000    0.0019531250
   0.0000000000   -0.3750000000   -0.1250000000    0.0019531250
   0.0000000000   -0.2500000000    0.0000000000    0.0019531250
   0.0000000000   -0.2500000000    0.1250000000    0.0019531250
   0.0000000000   -0.2500000000    0.2500000000    0.0019531250
   0.0000000000   -0.2500000000    0.3750000000    0.0019531250
   0.0000000000   -0.2500000000   -0.5000000000    0.0019531250
   0.0000000000   -0.2500000000   -0.3750000000    0.0019531250
   0.0000000000   -0.2500000000   -0.2500000000    0.0019531250
   0.0000000000   -0.2500000000   -0.1250000000    0.0019531250
   0.0000000000   -0.1250000000    0.0000000000    0.0019531250
   0.0000000000   -0.1250000000    0.1250000000    0.0019531250
   0.0000000000   -0.1250000000    0.2500000000    0.0019531250
   0.0000000000   -0.1250000000    0.3750000000    0.0019531250
   0.0000000000   -0.1250000000   -0.5000000000    0.0019531250
   0.0000000000   -0.1250000000   -0.3750000000    0.0019531250
   0.0000000000   -0.1250000000   -0.2500000000    0.0019531250
   0.0000000000   -0.1250000000   -0.1250000000    0.0019531250
   0.1250000000    0.0000000000    0.0000000000    0.0019531250
   0.1250000000    0.0000000000    0.1250000000    0.0019531250
   0.1250000000    0.0000000000    0.2500000000    0.0019531250
   0.1250000000    0.0000000000    0.3750000000    0.0019531250
   0.1250000000    0.0000000000   -0.5000000000    0.0019531250
   0.1250000000    0.0000000000   -0.3750000000    0.0019531250
   0.1250000000    0.0000000000   -0.2500000000    0.0019531250
   0.1250000000    0.0000000000   -0.1250000000    0.0019531250
   0.1250000000    0.1250000000    0.0000000000    0.0019531250
   0.1250000000    0.1250000000    0.1250000000    0.0019531250
   0.1250000000    0.1250000000    0.2500000000    0.0019531250
   0.1250000000    0.1250000000    0.3750000000    0.0019531250
   0.1250000000    0.1250000000   -0.5000000000    0.0019531250
   0.1250000000    0.1250000000   -0.3750000000    0.0019531250
   0.1250000000    0.1250000000   -0.2500000000    0.0019531250
   0.1250000000    0.1250000000   -0.1250000000    0.0019531250
   0.1250000000    0.2500000000    0.0000000000    0.0019531250
   0.1250000000    0.2500000000    0.1250000000    0.0019531250
   0.1250000000    0.2500000000    0.2500000000    0.0019531250
   0.1250000000    0.2500000000    0.3750000000    0.0019531250
   0.1250000000    0.2500000000   -0.5000000000    0.0019531250
   0.1250000000    0.2500000000   -0.3750000000    0.0019531250
   0.1250000000    0.2500000000   -0.2500000000    0.0019531250
   0.1250000000    0.2500000000   -0.1250000000    0.0019531250
   0.1250000000    0.3750000000    0.0000000000    0.0019531250
   0.1250000000    0.3750000000    0.1250000000    0.0019531250
   0.1250000000    0.3750000000    0.2500000000    0.0019531250
   0.1250000000    0.3750000000    0.3750000000    0.0019531250
   0.1250000000    0.3750000000   -0.5000000000    0.0019531250
   0.1250000000    0.3750000000   -0.3750000000    0.0019531250
   0.1250000000    0.3750000000   -0.2500000000    0.0019531250
   0.1250000000    0.3750000000   -0.1250000000    0.0019531250
   0.1250000000   -0.5000000000    0.0000000000    0.0019531250
   0.1250000000   -0.5000000000    0.1250000000    0.0019531250
   0.1250000000   -0.5000000000    0.2500000000    0.0019531250
   0.1250000000   -0.5000000000    0.3750000000    0.0019531250
   0.1250000000   -0.5000000000   -0.5000000000    0.0019531250
   0.1250000000   -0.5000000000   -0.3750000000    0.0019531250
   0.1250000000   -0.5000000000   -0.2500000000    0.0019531250
   0.1250000000   -0.5000000000   -0.1250000000    0.0019531250
   0.1250000000   -0.3750000000    0.0000000000    0.0019531250
   0.1250000000   -0.3750000000    0.1250000000    0.0019531250
   0.1250000000   -0.3750000000    0.2500000000    0.0019531250
   0.1250000000   -0.3750000000    0.3750000000    0.0019531250
   0.1250000000   -0.3750000000   -0.5000000000    0.0019531250
   0.1250000000   -0.3750000000   -0.3750000000    0.0019531250
   0.1250000000   -0.3750000000   -0.2500000000    0.0019531250
   0.1250000000   -0.3750000000   -0.1250000000    0.0019531250
   0.1250000000   -0.2500000000    0.0000000000    0.0019531250
   0.1250000000   -0.2500000000    0.1250000000    0.0019531250
   0.1250000000   -0.2500000000    0.2500000000    0.0019531250
   0.1250000000   -0.2500000000    0.3750000000    0.0019531250
   0.1250000000   -0.2500000000   -0.5000000000    0.0019531250
   0.1250000000   -0.2500000000   -0.3750000000    0.0019531250
   0.1250000000   -0.2500000000   -0.2500000000    0.0019531250
   0.1250000000   -0.2500000000   -0.1250000000    0.0019531250
   0.1250000000   -0.1250000000    0.0000000000    0.0019531250
   0.1250000000   -0.1250000000    0.1250000000    0.0019531250
   0.1250000000   -0.1250000000    0.2500000000    0.0019531250
   0.1250000000   -0.1250000000    0.3750000000    0.0019531250
   0.1250000000   -0.1250000000   -0.5000000000    0.0019531250
   0.1250000000   -0.1250000000   -0.3750000000    0.0019531250
   0.1250000000   -0.1250000000   -0.2500000000    0.0019531250
   0.1250000000   -0.1250000000   -0.1250000000    0.0019531250
   0.2500000000    0.0000000000    0.0000000000    0.0019531250
   0.2500000000    0.0000000000    0.1250000000    0.0019531250
   0.2500000000    0.0000000000    0.2500000000    0.0019531250
   0.2500000000    0.0000000000    0.3750000000    0.0019531250
   0.2500000000    0.0000000000   -0.5000000000    0.0019531250
   0.2500000000    0.0000000000   -0.3750000000    0.0019531250
   0.2500000000    0.0000000000   -0.2500000000    0.0019531250
   0.2500000000    0.0000000000   -0.1250000000    0.0019531250
   0.2500000000    0.1250000000    0.0000000000    0.0019531250
   0.2500000000    0.1250000000    0.1250000000    0.0019531250
   0.2500000000    0.1250000000    0.2500000000    0.0019531250
   0.2500000000    0.1250000000    0.3750000000    0.0019531250
   0.2500000000    0.1250000000   -0.5000000000    0.0019531250
   0.2500000000    0.1250000000   -0.3750000000    0.0019531250
   0.2500000000    0.1250000000   -0.2500000000    0.0019531250
   0.2500000000    0.1250000000   -0.1250000000    0.0019531250
   0.2500000000    0.2500000000    0.0000000000    0.0019531250
   0.2500000000    0.2500000000    0.1250000000    0.0019531250
   0.2500000000    0.2500000000    0.2500000000    0.0019531250
   0.2500000000    0.2500000000    0.3750000000    0.0019531250
   0.2500000000    0.2500000000   -0.5000000000    0.0019531250
   0.2500000000    0.2500000000   -0.3750000000    0.0019531250
   0.2500000000    0.2500000000   -0.2500000000    0.0019531250
   0.2500000000    0.2500000000   -0.1250000000    0.0019531250
   0.2500000000    0.3750000000    0.0000000000    0.0019531250
   0.2500000000    0.3750000000    0.1250000000    0.0019531250
   0.2500000000    0.3750000000    0.2500000000    0.0019531250
   0.2500000000    0.3750000000    0.3750000000    0.0019531250
   0.2500000000    0.3750000000   -0.5000000000    0.0019531250
   0.2500000000    0.3750000000   -0.3750000000    0.0019531250
   0.2500000000    0.3750000000   -0.2500000000    0.0019531250
   0.2500000000    0.3750000000   -0.1250000000    0.0019531250
   0.2500000000   -0.5000000000    0.0000000000    0.0019531250
   0.2500000000   -0.5000000000    0.1250000000    0.0019531250
   0.2500000000   -0.5000000000    0.2500000000    0.0019531250
   0.2500000000   -0.5000000000    0.3750000000    0.0019531250
   0.2500000000   -0.5000000000   -0.5000000000    0.0019531250
   0.2500000000   -0.5000000000   -0.3750000000    0.0019531250
   0.2500000000   -0.5000000000   -0.2500000000    0.0019531250
   0.2500000000   -0.5000000000   -0.1250000000    0.0019531250
   0.2500000000   -0.3750000000    0.0000000000    0.0019531250
   0.2500000000   -0.3750000000    0.1250000000    0.0019531250
   0.2500000000   -0.3750000000    0.2500000000    0.0019531250
   0.2500000000   -0.3750000000    0.3750000000    0.0019531250
   0.2500000000   -0.3750000000   -0.5000000000    0.0019531250
   0.2500000000   -0.3750000000   -0.3750000000    0.0019531250
   0.2500000000   -0.3750000000   -0.2500000000    0.0019531250
   0.2500000000   -0.3750000000   -0.1250000000    0.0019531250
   0.2500000000   -0.2500000000    0.0000000000    0.0019531250
   0.2500000000   -0.2500000000    0.1250000000    0.0019531250
   0.2500000000   -0.2500000000    0.2500000000    0.0019531250
   0.2500000000   -0.2500000000    0.3750000000    0.0019531250
   0.2500000000   -0.2500000000   -0.5000000000    0.0019531250
   0.2500000000   -0.2500000000   -0.3750000000    0.0019531250
   0.2500000000   -0.2500000000   -0.2500000000    0.0019531250
   0.2500000000   -0.2500000000   -0.1250000000    0.0019531250
   0.2500000000   -0.1250000000    0.0000000000    0.0019531250
   0.2500000000   -0.1250000000    0.1250000000    0.0019531250
   0.2500000000   -0.1250000000    0.2500000000    0.0019531250
   0.2500000000   -0.1250000000    0.3750000000    0.0019531250
   0.2500000000   -0.1250000000   -0.5000000000    0.0019531250
   0.2500000000   -0.1250000000   -0.3750000000    0.0019531250
   0.2500000000   -0.1250000000   -0.2500000000    0.0019531250
   0.2500000000   -0.1250000000   -0.1250000000    0.0019531250
   0.3750000000    0.0000000000    0.0000000000    0.0019531250
   0.3750000000    0.0000000000    0.1250000000    0.0019531250
   0.3750000000    0.0000000000    0.2500000000    0.0019531250
   0.3750000000    0.0000000000    0.3750000000    0.0019531250
   0.3750000000    0.0000000000   -0.5000000000    0.0019531250
   0.3750000000    0.0000000000   -0.3750000000    0.0019531250
   0.3750000000    0.0000000000   -0.2500000000    0.0019531250
   0.3750000000    0.0000000000   -0.1250000000    0.0019531250
   0.3750000000    0.1250000000    0.0000000000    0.0019531250
   0.3750000000    0.1250000000    0.1250000000    0.0019531250
   0.3750000000    0.1250000000    0.2500000000    0.0019531250
   0.3750000000    0.1250000000    0.3750000000    0.0019531250
   0.3750000000    0.1250000000   -0.5000000000    0.0019531250
   0.3750000000    0.1250000000   -0.3750000000    0.0019531250
   0.3750000000    0.1250000000   -0.2500000000    0.0019531250
   0.3750000000    0.1250000000   -0.1250000000    0.0019531250
   0.3750000000    0.2500000000    0.0000000000    0.0019531250
   0.3750000000    0.2500000000    0.1250000000    0.0019531250
   0.3750000000    0.2500000000    0.2500000000    0.0019531250
   0.3750000000    0.2500000000    0.3750000000    0.0019531250
   0.3750000000    0.2500000000   -0.5000000000    0.0019531250
   0.3750000000    0.2500000000   -0.3750000000    0.0019531250
   0.3750000000    0.2500000000   -0.2500000000    0.0019531250
   0.3750000000    0.2500000000   -0.1250000000    0.0019531250
   0.3750000000    0.3750000000    0.0000000000    0.0019531250
   0.3750000000    0.3750000000    0.1250000000    0.0019531250
   0.3750000000    0.3750000000    0.2500000000    0.0019531250
   0.3750000000    0.3750000000    0.3750000000    0.0019531250
   0.3750000000    0.3750000000   -0.5000000000    0.0019531250
   0.3750000000    0.3750000000   -0.3750000000    0.0019531250
   0.3750000000    0.3750000000   -0.2500000000    0.0019531250
   0.3750000000    0.3750000000   -0.1250000000    0.0019531250
   0.3750000000   -0.5000000000    0.0000000000    0.0019531250
   0.3750000000   -0.5000000000    0.1250000000    0.0019531250
   0.3750000000   -0.5000000000    0.2500000000    0.0019531250
   0.3750000000   -0.5000000000    0.3750000000    0.0019531250
   0.3750000000   -0.5000000000   -0.5000000000    0.0019531250
   0.3750000000   -0.5000000000   -0.3750000000    0.0019531250
   0.3750000000   -0.5000000000   -0.2500000000    0.0019531250
   0.3750000000   -0.5000000000   -0.1250000000    0.0019531250
   0.3750000000   -0.3750000000    0.0000000000    0.0019531250
   0.3750000000   -0.3750000000    0.1250000000    0.0019531250
   0.3750000000   -0.3750000000    0.2500000000    0.0019531250
   0.3750000000   -0.3750000000    0.3750000000    0.0019531250
   0.3750000000   -0.3750000000   -0.5000000000    0.0019531250
   0.3750000000   -0.3750000000   -0.3750000000    0.0019531250
   0.3750000000   -0.3750000000   -0.2500000000    0.0019531250
   0.3750000000   -0.3750000000   -0.1250000000    0.0019531250
   0.3750000000   -0.2500000000    0.0000000000    0.0019531250
   0.3750000000   -0.2500000000    0.1250000000    0.0019531250
   0.3750000000   -0.2500000000    0.2500000000    0.0019531250
   0.3750000000   -0.2500000000    0.3750000000    0.0019531250
   0.3750000000   -0.2500000000   -0.5000000000    0.0019531250
   0.3750000000   -0.2500000000   -0.3750000000    0.0019531250
   0.3750000000   -0.2500000000   -0.2500000000    0.0019531250
   0.3750000000   -0.2500000000   -0.1250000000    0.0019531250
   0.3750000000   -0.1250000000    0.0000000000    0.0019531250
   0.3750000000   -0.1250000000    0.1250000000    0.0019531250
   0.3750000000   -0.1250000000    0.2500000000    0.0019531250
   0.3750000000   -0.1250000000    0.3750000000    0.0019531250
   0.3750000000   -0.1250000000   -0.5000000000    0.0019531250
   0.3750000000   -0.1250000000   -0.3750000000    0.0019531250
   0.3750000000   -0.1250000000   -0.2500000000    0.0019531250
   0.3750000000   -0.1250000000   -0.1250000000    0.0019531250
  -0.5000000000    0.0000000000    0.0000000000    0.0019531250
  -0.5000000000    0.0000000000    0.1250000000    0.0019531250
  -0.5000000000    0.0000000000    0.2500000000    0.0019531250
  -0.5000000000    0.0000000000    0.3750000000    0.0019531250
  -0.5000000000    0.0000000000   -0.5000000000    0.0019531250
  -0.5000000000    0.0000000000   -0.3750000000    0.0019531250
  -0.5000000000    0.0000000000   -0.2500000000    0.0019531250
  -0.5000000000    0.0000000000   -0.1250000000    0.0019531250
  -0.5000000000    0.1250000000    0.0000000000    0.0019531250
  -0.5000000000    0.1250000000    0.1250000000    0.0019531250
  -0.5000000000    0.1250000000    0.2500000000    0.0019531250
  -0.5000000000    0.1250000000    0.3750000000    0.0019531250
  -0.5000000000    0.1250000000   -0.5000000000    0.0019531250
  -0.5000000000    0.1250000000   -0.3750000000    0.0019531250
  -0.5000000000    0.1250000000   -0.2500000000    0.0019531250
  -0.5000000000    0.1250000000   -0.1250000000    0.0019531250
  -0.5000000000    0.2500000000    0.0000000000    0.0019531250
  -0.5000000000    0.2500000000    0.1250000000    0.0019531250
  -0.5000000000    0.2500000000    0.2500000000    0.0019531250
  -0.5000000000    0.2500000000    0.3750000000    0.0019531250
  -0.5000000000    0.2500000000   -0.5000000000    0.0019531250
  -0.5000000000    0.2500000000   -0.3750000000    0.0019531250
  -0.5000000000    0.2500000000   -0.2500000000    0.0019531250
  -0.5000000000    0.2500000000   -0.1250000000    0.0019531250
  -0.5000000000    0.3750000000    0.0000000000    0.0019531250
  -0.5000000000    0.3750000000    0.1250000000    0.0019531250
  -0.5000000000    0.3750000000    0.2500000000    0.0019531250
  -0.5000000000    0.3750000000    0.3750000000    0.0019531250
  -0.5000000000    0.3750000000   -0.5000000000    0.0019531250
  -0.5000000000    0.3750000000   -0.3750000000    0.0019531250
  -0.5000000000    0.3750000000   -0.2500000000    0.0019531250
  -0.5000000000    0.3750000000   -0.1250000000    0.0019531250
  -0.5000000000   -0.5000000000    0.0000000000    0.0019531250
  -0.5000000000   -0.5000000000    0.1250000000    0.0019531250
  -0.5000000000   -0.5000000000    0.2500000000    0.0019531250
  -0.5000000000   -0.5000000000    0.3750000000    0.0019531250
  -0.5000000000   -0.5000000000   -0.5000000000    0.0019531250
  -0.5000000000   -0.5000000000   -0.3750000000    0.0019531250
  -0.5000000000   -0.5000000000   -0.2500000000    0.0019531250
  -0.5000000000   -0.5000000000   -0.1250000000    0.0019531250
  -0.5000000000   -0.3750000000    0.0000000000    0.0019531250
  -0.5000000000   -0.3750000000    0.1250000000    0.0019531250
  -0.5000000000   -0.3750000000    0.2500000000    0.0019531250
  -0.5000000000   -0.3750000000    0.3750000000    0.0019531250
  -0.5000000000   -0.3750000000   -0.5000000000    0.0019531250
  -0.5000000000   -0.3750000000   -0.3750000000    0.0019531250
  -0.5000000000   -0.3750000000   -0.2500000000    0.0019531250
  -0.5000000000   -0.3750000000   -0.1250000000    0.0019531250
  -0.5000000000   -0.2500000000    0.0000000000    0.0019531250
  -0.5000000000   -0.2500000000    0.1250000000    0.0019531250
  -0.5000000000   -0.2500000000    0.2500000000    0.0019531250
  -0.5000000000   -0.2500000000    0.3750000000    0.0019531250
  -0.5000000000   -0.2500000000   -0.5000000000    0.0019531250
  -0.5000000000   -0.2500000000   -0.3750000000    0.0019531250
  -0.5000000000   -0.2500000000   -0.2500000000    0.0019531250
  -0.5000000000   -0.2500000000   -0.1250000000    0.0019531250
  -0.5000000000   -0.1250000000    0.0000000000    0.0019531250
  -0.5000000000   -0.1250000000    0.1250000000    0.0019531250
  -0.5000000000   -0.1250000000    0.2500000000    0.0019531250
  -0.5000000000   -0.1250000000    0.3750000000    0.0019531250
  -0.5000000000   -0.1250000000   -0.5000000000    0.0019531250
  -0.5000000000   -0.1250000000   -0.3750000000    0.0019531250
  -0.5000000000   -0.1250000000   -0.2500000000    0.0019531250
  -0.5000000000   -0.1250000000   -0.1250000000    0.0019531250
  -0.3750000000    0.0000000000    0.0000000000    0.0019531250
  -0.3750000000    0.0000000000    0.1250000000    0.0019531250
  -0.3750000000    0.0000000000    0.2500000000    0.0019531250
  -0.3750000000    0.0000000000    0.3750000000    0.0019531250
  -0.3750000000    0.0000000000   -0.5000000000    0.0019531250
  -0.3750000000    0.0000000000   -0.3750000000    0.0019531250
  -0.3750000000    0.0000000000   -0.2500000000    0.0019531250
  -0.3750000000    0.0000000000   -0.1250000000    0.0019531250
  -0.3750000000    0.1250000000    0.0000000000    0.0019531250
  -0.3750000000    0.1250000000    0.1250000000    0.0019531250
  -0.3750000000    0.1250000000    0.2500000000    0.0019531250
  -0.3750000000    0.1250000000    0.3750000000    0.0019531250
  -0.3750000000    0.1250000000   -0.5000000000    0.0019531250
  -0.3750000000    0.1250000000   -0.3750000000    0.0019531250
  -0.3750000000    0.1250000000   -0.2500000000    0.0019531250
  -0.3750000000    0.1250000000   -0.1250000000    0.0019531250
  -0.3750000000    0.2500000000    0.0000000000    0.0019531250
  -0.3750000000    0.2500000000    0.1250000000    0.0019531250
  -0.3750000000    0.2500000000    0.2500000000    0.0019531250
  -0.3750000000    0.2500000000    0.3750000000    0.0019531250
  -0.3750000000    0.2500000000   -0.5000000000    0.0019531250
  -0.3750000000    0.2500000000   -0.3750000000    0.0019531250
  -0.3750000000    0.2500000000   -0.2500000000    0.0019531250
  -0.3750000000    0.2500000000   -0.1250000000    0.0019531250
  -0.3750000000    0.3750000000    0.0000000000    0.0019531250
  -0.3750000000    0.3750000000    0.1250000000    0.0019531250
  -0.3750000000    0.3750000000    0.2500000000    0.0019531250
  -0.3750000000    0.3750000000    0.3750000000    0.0019531250
  -0.3750000000    0.3750000000   -0.5000000000    0.0019531250
  -0.3750000000    0.3750000000   -0.3750000000    0.0019531250
  -0.3750000000    0.3750000000   -0.2500000000    0.0019531250
  -0.3750000000    0.3750000000   -0.1250000000    0.0019531250
  -0.3750000000   -0.5000000000    0.0000000000    0.0019531250
  -0.3750000000   -0.5000000000    0.1250000000    0.0019531250
  -0.3750000000   -0.5000000000    0.2500000000    0.0019531250
  -0.3750000000   -0.5000000000    0.3750000000    0.0019531250
  -0.3750000000   -0.5000000000   -0.5000000000    0.0019531250
  -0.3750000000   -0.5000000000   -0.3750000000    0.0019531250
  -0.3750000000   -0.5000000000   -0.2500000000    0.0019531250
  -0.3750000000   -0.5000000000   -0.1250000000    0.0019531250
  -0.3750000000   -0.3750000000    0.0000000000    0.0019531250
  -0.3750000000   -0.3750000000    0.1250000000    0.0019531250
  -0.3750000000   -0.3750000000    0.2500000000    0.0019531250
  -0.3750000000   -0.3750000000    0.3750000000    0.0019531250
  -0.3750000000   -0.3750000000   -0.5000000000    0.0019531250
  -0.3750000000   -0.3750000000   -0.3750000000    0.0019531250
  -0.3750000000   -0.3750000000   -0.2500000000    0.0019531250
  -0.3750000000   -0.3750000000   -0.1250000000    0.0019531250
  -0.3750000000   -0.2500000000    0.0000000000    0.0019531250
  -0.3750000000   -0.2500000000    0.1250000000    0.0019531250
  -0.3750000000   -0.2500000000    0.2500000000    0.0019531250
  -0.3750000000   -0.2500000000    0.3750000000    0.0019531250
  -0.3750000000   -0.2500000000   -0.5000000000    0.0019531250
  -0.3750000000   -0.2500000000   -0.3750000000    0.0019531250
  -0.3750000000   -0.2500000000   -0.2500000000    0.0019531250
  -0.3750000000   -0.2500000000   -0.1250000000    0.0019531250
  -0.3750000000   -0.1250000000    0.0000000000    0.0019531250
  -0.3750000000   -0.1250000000    0.1250000000    0.0019531250
  -0.3750000000   -0.1250000000    0.2500000000    0.0019531250
  -0.3750000000   -0.1250000000    0.3750000000    0.0019531250
  -0.3750000000   -0.1250000000   -0.5000000000    0.0019531250
  -0.3750000000   -0.1250000000   -0.3750000000    0.0019531250
  -0.3750000000   -0.1250000000   -0.2500000000    0.0019531250
  -0.3750000000   -0.1250000000   -0.1250000000    0.0019531250
  -0.2500000000    0.0000000000    0.0000000000    0.0019531250
  -0.2500000000    0.0000000000    0.1250000000    0.0019531250
  -0.2500000000    0.0000000000    0.2500000000    0.0019531250
  -0.2500000000    0.0000000000    0.3750000000    0.0019531250
  -0.2500000000    0.0000000000   -0.5000000000    0.0019531250
  -0.2500000000    0.0000000000   -0.3750000000    0.0019531250
  -0.2500000000    0.0000000000   -0.2500000000    0.0019531250
  -0.2500000000    0.0000000000   -0.1250000000    0.0019531250
  -0.2500000000    0.1250000000    0.0000000000    0.0019531250
  -0.2500000000    0.1250000000    0.1250000000    0.0019531250
  -0.2500000000    0.1250000000    0.2500000000    0.0019531250
  -0.2500000000    0.1250000000    0.3750000000    0.0019531250
  -0.2500000000    0.1250000000   -0.5000000000    0.0019531250
  -0.2500000000    0.1250000000   -0.3750000000    0.0019531250
  -0.2500000000    0.1250000000   -0.2500000000    0.0019531250
  -0.2500000000    0.1250000000   -0.1250000000    0.0019531250
  -0.2500000000    0.2500000000    0.0000000000    0.0019531250
  -0.2500000000    0.2500000000    0.1250000000    0.0019531250
  -0.2500000000    0.2500000000    0.2500000000    0.0019531250
  -0.2500000000    0.2500000000    0.3750000000    0.0019531250
  -0.2500000000    0.2500000000   -0.5000000000    0.0019531250
  -0.2500000000    0.2500000000   -0.3750000000    0.0019531250
  -0.2500000000    0.2500000000   -0.2500000000    0.0019531250
  -0.2500000000    0.2500000000   -0.1250000000    0.0019531250
  -0.2500000000    0.3750000000    0.0000000000    0.0019531250
  -0.2500000000    0.3750000000    0.1250000000    0.0019531250
  -0.2500000000    0.3750000000    0.2500000000    0.0019531250
  -0.2500000000    0.3750000000    0.3750000000    0.0019531250
  -0.2500000000    0.3750000000   -0.5000000000    0.0019531250
  -0.2500000000    0.3750000000   -0.3750000000    0.0019531250
  -0.2500000000    0.3750000000   -0.2500000000    0.0019531250
  -0.2500000000    0.3750000000   -0.1250000000    0.0019531250
  -0.2500000000   -0.5000000000    0.0000000000    0.0019531250
  -0.2500000000   -0.5000000000    0.1250000000    0.0019531250
  -0.2500000000   -0.5000000000    0.2500000000    0.0019531250
  -0.2500000000   -0.5000000000    0.3750000000    0.0019531250
  -0.2500000000   -0.5000000000   -0.5000000000    0.0019531250
  -0.2500000000   -0.5000000000   -0.3750000000    0.0019531250
  -0.2500000000   -0.5000000000   -0.2500000000    0.0019531250
  -0.2500000000   -0.5000000000   -0.1250000000    0.0019531250
  -0.2500000000   -0.3750000000    0.0000000000    0.0019531250
  -0.2500000000   -0.3750000000    0.1250000000    0.0019531250
  -0.2500000000   -0.3750000000    0.2500000000    0.0019531250
  -0.2500000000   -0.3750000000    0.3750000000    0.0019531250
  -0.2500000000   -0.3750000000   -0.5000000000    0.0019531250
  -0.2500000000   -0.3750000000   -0.3750000000    0.0019531250
  -0.2500000000   -0.3750000000   -0.2500000000    0.0019531250
  -0.2500000000   -0.3750000000   -0.1250000000    0.0019531250
  -0.2500000000   -0.2500000000    0.0000000000    0.0019531250
  -0.2500000000   -0.2500000000    0.1250000000    0.0019531250
  -0.2500000000   -0.2500000000    0.2500000000    0.0019531250
  -0.2500000000   -0.2500000000    0.3750000000    0.0019531250
  -0.2500000000   -0.2500000000   -0.5000000000    0.0019531250
  -0.2500000000   -0.2500000000   -0.3750000000    0.0019531250
  -0.2500000000   -0.2500000000   -0.2500000000    0.0019531250
  -0.2500000000   -0.2500000000   -0.1250000000    0.0019531250
  -0.2500000000   -0.1250000000    0.0000000000    0.0019531250
  -0.2500000000   -0.1250000000    0.1250000000    0.0019531250
  -0.2500000000   -0.1250000000    0.2500000000    0.0019531250
  -0.2500000000   -0.1250000000    0.3750000000    0.0019531250
  -0.2500000000   -0.1250000000   -0.5000000000    0.0019531250
  -0.2500000000   -0.1250000000   -0.3750000000    0.0019531250
  -0.2500000000   -0.1250000000   -0.2500000000    0.0019531250
  -0.2500000000   -0.1250000000   -0.1250000000    0.0019531250
  -0.1250000000    0.0000000000    0.0000000000    0.0019531250
  -0.1250000000    0.0000000000    0.1250000000    0.0019531250
  -0.1250000000    0.0000000000    0.2500000000    0.0019531250
  -0.1250000000    0.0000000000    0.3750000000    0.0019531250