num_bands = 53
num_wann  = 24
dis_num_iter = 200
num_iter = 0

write_hr=.true.
write_u_matrices = .true.

dis_froz_max = 19.6649
dis_froz_min = -200

exclude_bands = 1-8, 62-70

spinors = .true.

begin atoms_frac
Fe   0.0   0.0   0.0
end atoms_frac


begin projections
Fe:s,p,d
f= 0.50, 0.50, 0.00:s
f= 0.00, 0.50, 0.50:s
f= 0.50, 0.00, 0.50:s
end projections


begin unit_cell_cart
bohr
-2.700000   2.700000   2.700000
 2.700000  -2.700000   2.700000
 2.700000   2.700000  -2.700000
end unit_cell_cart

mp_grid : 8 8 8

begin kpoints
   0.0000000000    0.0000000000    0.0000000000    0.0019531250
   0.0000000000    0.0000000000    0.1250000000    0.0019531250
   0.0000000000    0.0000000000    0.2500000000    0.0019531250
   0.0000000000    0.0000000000    0.3750000000    0.0019531250
   0.0000000000    0.0000000000   -0.5000000000    0.0019531250
   0.0000000000    0.0000000000   -0.3750000000    0.0019531250
   0.0000000000    0.0000000000   -0.2500000000    0.0019531250
   0.0000000000    0.0000000000   -0.1250000000    0.0019531250
   0.0000000000    0.1250000000    0.0000000000    0.0019531250
   0.0000000000    0.1250000000    0.1250000000    0.0019531250
   0.0000000000    0.1250000000    0.2500000000    0.0019531250
   0.0000000000    0.1250000000    0.3750000000    0.0019531250
   0.0000000000    0.1250000000   -0.5000000000    0.0019531250
   0.0000000000    0.1250000000   -0.3750000000    0.0019531250
   0.0000000000    0.1250000000   -0.2500000000    0.0019531250
   0.0000000000    0.1250000000   -0.1250000000    0.0019531250
   0.0000000000    0.2500000000    0.0000000000    0.0019531250
   0.0000000000    0.2500000000    0.1250000000    0.0019531250
   0.0000000000    0.2500000000    0.2500000000    0.0019531250
   0.0000000000    0.2500000000    0.3750000000    0.0019531250
   0.0000000000    0.2500000000   -0.5000000000    0.0019531250
   0.0000000000    0.2500000000   -0.3750000000    0.0019531250
   0.0000000000    0.2500000000   -0.2500000000    0.0019531250
   0.0000000000    0.2500000000   -0.1250000000    0.0019531250
   0.0000000000    0.3750000000    0.0000000000    0.0019531250
   0.0000000000    0.3750000000    0.1250000000    0.0019531250
   0.0000000000    0.3750000000    0.2500000000    0.0019531250
   0.0000000000    0.3750000000    0.3750000000    0.0019531250
   0.0000000000    0.3750000000   -0.5000000000    0.0019531250
   0.0000000000    0.3750000000   -0.3750000000    0.0019531250
   0.0000000000    0.3750000000   -0.2500000000    0.0019531250
   0.0000000000    0.3750000000   -0.1250000000    0.0019531250
   0.0000000000   -0.5000000000    0.0000000000    0.0019531250
   0.0000000000   -0.5000000000    0.1250000000    0.0019531250
   0.0000000000   -0.5000000000    0.2500000000    0.0019531250
   0.0000000000   -0.5000000000    0.3750000000    0.0019531250
   0.0000000000   -0.5000000000   -0.5000000000    0.0019531250
   0.0000000000   -0.5000000000   -0.3750000000    0.0019531250
   0.0000000000   -0.5000000000   -0.2500000000    0.0019531250
   0.0000000000   -0.5000000000   -0.1250000000    0.0019531250
   0.0000000000   -0.3750000000    0.0000000000    0.0019531250
   0.0000000000   -0.3750000000    0.1250000000    0.0019531250
   0.0000000000   -0.3750000000    0.2500000000    0.0019531250
   0.0000000000   -0.3750000000    0.3750000000    0.0019531250
   0.0000000000   -0.3750000000   -0.5000000000    0.0019531250
   0.0000000000   -0.3750000000   -0.3750000000    0.0019531250
   0.0000000000   -0.3750000000   -0.2500000000    0.0019531250
   0.0000000000   -0.3750000000   -0.1250000000    0.0019531250
   0.0000000000   -0.2500000000    0.0000000000    0.0019531250
   0.0000000000   -0.2500000000    0.1250000000    0.0019531250
   0.0000000000   -0.2500000000    0.2500000000    0.0019531250
   0.0000000000   -0.2500000000    0.3750000000    0.0019531250
   0.0000000000   -0.2500000000   -0.5000000000    0.0019531250
   0.0000000000   -0.2500000000   -0.3750000000    0.0019531250
   0.0000000000   -0.2500000000   -0.2500000000    0.0019531250
   0.0000000000   -0.2500000000   -0.1250000000    0.0019531250
   0.0000000000   -0.1250000000    0.0000000000    0.0019531250
   0.0000000000   -0.1250000000    0.1250000000    0.0019531250
   0.0000000000   -0.1250000000    0.2500000000    0.0019531250
   0.0000000000   -0.1250000000    0.3750000000    0.0019531250
   0.0000000000   -0.1250000000   -0.5000000000    0.0019531250
   0.0000000000   -0.1250000000   -0.3750000000    0.0019531250
   0.0000000000   -0.1250000000   -0.2500000000    0.0019531250
   0.0000000000   -0.1250000000   -0.1250000000    0.0019531250
   0.1250000000    0.0000000000    0.0000000000    0.0019531250
   0.1250000000    0.0000000000    0.1250000000    0.0019531250
   0.1250000000    0.0000000000    0.2500000000    0.0019531250
   0.1250000000    0.0000000000    0.3750000000    0.0019531250
   0.1250000000    0.0000000000   -0.5000000000    0.0019531250
   0.1250000000    0.0000000000   -0.3750000000    0.0019531250
   0.1250000000    0.0000000000   -0.2500000000    0.0019531250
   0.1250000000    0.0000000000   -0.1250000000    0.0019531250
   0.1250000000    0.1250000000    0.0000000000    0.0019531250
   0.1250000000    0.1250000000    0.1250000000    0.0019531250
   0.1250000000    0.1250000000    0.2500000000    0.0019531250
   0.1250000000    0.1250000000    0.3750000000    0.0019531250
   0.1250000000    0.1250000000   -0.5000000000    0.0019531250
   0.1250000000    0.1250000000   -0.3750000000    0.0019531250
   0.1250000000    0.1250000000   -0.2500000000    0.0019531250
   0.1250000000    0.1250000000   -0.1250000000    0.0019531250
   0.1250000000    0.2500000000    0.0000000000    0.0019531250
   0.1250000000    0.2500000000    0.1250000000    0.0019531250
   0.1250000000    0.2500000000    0.2500000000    0.0019531250
   0.1250000000    0.2500000000    0.3750000000    0.0019531250
   0.1250000000    0.2500000000   -0.5000000000    0.0019531250
   0.1250000000    0.2500000000   -0.3750000000    0.0019531250
   0.1250000000    0.2500000000   -0.2500000000    0.0019531250
   0.1250000000    0.2500000000   -0.1250000000    0.0019531250
   0.1250000000    0.3750000000    0.0000000000    0.0019531250
   0.1250000000    0.3750000000    0.1250000000    0.0019531250
   0.1250000000    0.3750000000    0.2500000000    0.0019531250
   0.1250000000    0.3750000000    0.3750000000    0.0019531250
   0.1250000000    0.3750000000   -0.5000000000    0.0019531250
   0.1250000000    0.3750000000   -0.3750000000    0.0019531250
   0.1250000000    0.3750000000   -0.2500000000    0.0019531250
   0.1250000000    0.3750000000   -0.1250000000    0.0019531250
   0.1250000000   -0.5000000000    0.0000000000    0.0019531250
   0.1250000000   -0.5000000000    0.1250000000    0.0019531250
   0.1250000000   -0.5000000000    0.2500000000    0.0019531250
   0.1250000000   -0.5000000000    0.3750000000    0.0019531250
   0.1250000000   -0.5000000000   -0.5000000000    0.0019531250
   0.1250000000   -0.5000000000   -0.3750000000    0.0019531250
   0.1250000000   -0.5000000000   -0.2500000000    0.0019531250
   0.1250000000   -0.5000000000   -0.1250000000    0.0019531250
   0.1250000000   -0.3750000000    0.0000000000    0.0019531250
   0.1250000000   -0.3750000000    0.1250000000    0.0019531250
   0.1250000000   -0.3750000000    0.2500000000    0.0019531250
   0.1250000000   -0.3750000000    0.3750000000    0.0019531250
   0.1250000000   -0.3750000000   -0.5000000000    0.0019531250
   0.1250000000   -0.3750000000   -0.3750000000    0.0019531250
   0.1250000000   -0.3750000000   -0.2500000000    0.0019531250
   0.1250000000   -0.3750000000   -0.1250000000    0.0019531250
   0.1250000000   -0.2500000000    0.0000000000    0.0019531250
   0.1250000000   -0.2500000000    0.1250000000    0.0019531250
   0.1250000000   -0.2500000000    0.2500000000    0.0019531250
   0.1250000000   -0.2500000000    0.3750000000    0.0019531250
   0.1250000000   -0.2500000000   -0.5000000000    0.0019531250
   0.1250000000   -0.2500000000   -0.3750000000    0.0019531250
   0.1250000000   -0.2500000000   -0.2500000000    0.0019531250
   0.1250000000   -0.2500000000   -0.1250000000    0.0019531250
   0.1250000000   -0.1250000000    0.0000000000    0.0019531250
   0.1250000000   -0.1250000000    0.1250000000    0.0019531250
   0.1250000000   -0.1250000000    0.2500000000    0.0019531250
   0.1250000000   -0.1250000000    0.3750000000    0.0019531250
   0.1250000000   -0.1250000000   -0.5000000000    0.0019531250
   0.1250000000   -0.1250000000   -0.3750000000    0.0019531250
   0.1250000000   -0.1250000000   -0.2500000000    0.0019531250
   0.1250000000   -0.1250000000   -0.1250000000    0.0019531250
   0.2500000000    0.0000000000    0.0000000000    0.0019531250
   0.2500000000    0.0000000000    0.1250000000    0.0019531250
   0.2500000000    0.0000000000    0.2500000000    0.0019531250
   0.2500000000    0.0000000000    0.3750000000    0.0019531250
   0.2500000000    0.0000000000   -0.5000000000    0.0019531250
   0.2500000000    0.0000000000   -0.3750000000    0.0019531250
   0.2500000000    0.0000000000   -0.2500000000    0.0019531250
   0.2500000000    0.0000000000   -0.1250000000    0.0019531250
   0.2500000000    0.1250000000    0.0000000000    0.0019531250
   0.2500000000    0.1250000000    0.1250000000    0.0019531250
   0.2500000000    0.1250000000    0.2500000000    0.0019531250
   0.2500000000    0.1250000000    0.3750000000    0.0019531250
   0.2500000000    0.1250000000   -0.5000000000    0.0019531250
   0.2500000000    0.1250000000   -0.3750000000    0.0019531250
   0.2500000000    0.1250000000   -0.2500000000    0.0019531250
   0.2500000000    0.1250000000   -0.1250000000    0.0019531250
   0.2500000000    0.2500000000    0.0000000000    0.0019531250
   0.2500000000    0.2500000000    0.1250000000    0.0019531250
   0.2500000000    0.2500000000    0.2500000000    0.0019531250
   0.2500000000    0.2500000000    0.3750000000    0.0019531250
   0.2500000000    0.2500000000   -0.5000000000    0.0019531250
   0.2500000000    0.2500000000   -0.3750000000    0.0019531250
   0.2500000000    0.2500000000   -0.2500000000    0.0019531250
   0.2500000000    0.2500000000   -0.1250000000    0.0019531250
   0.2500000000    0.3750000000    0.0000000000    0.0019531250
   0.2500000000    0.3750000000    0.1250000000    0.0019531250
   0.2500000000    0.3750000000    0.2500000000    0.0019531250
   0.2500000000    0.3750000000    0.3750000000    0.0019531250
   0.2500000000    0.3750000000   -0.5000000000    0.0019531250
   0.2500000000    0.3750000000   -0.3750000000    0.0019531250
   0.2500000000    0.3750000000   -0.2500000000    0.0019531250
   0.2500000000    0.3750000000   -0.1250000000    0.0019531250
   0.2500000000   -0.5000000000    0.0000000000    0.0019531250
   0.2500000000   -0.5000000000    0.1250000000    0.0019531250
   0.2500000000   -0.5000000000    0.2500000000    0.0019531250
   0.2500000000   -0.5000000000    0.3750000000    0.0019531250
   0.2500000000   -0.5000000000   -0.5000000000    0.0019531250
   0.2500000000   -0.5000000000   -0.3750000000    0.0019531250
   0.2500000000   -0.5000000000   -0.2500000000    0.0019531250
   0.2500000000   -0.5000000000   -0.1250000000    0.0019531250
   0.2500000000   -0.3750000000    0.0000000000    0.0019531250
   0.2500000000   -0.3750000000    0.1250000000    0.0019531250
   0.2500000000   -0.3750000000    0.2500000000    0.0019531250
   0.2500000000   -0.3750000000    0.3750000000    0.0019531250
   0.2500000000   -0.3750000000   -0.5000000000    0.0019531250
   0.2500000000   -0.3750000000   -0.3750000000    0.0019531250
   0.2500000000   -0.3750000000   -0.2500000000    0.0019531250
   0.2500000000   -0.3750000000   -0.1250000000    0.0019531250
   0.2500000000   -0.2500000000    0.0000000000    0.0019531250
   0.2500000000   -0.2500000000    0.1250000000    0.0019531250
   0.2500000000   -0.2500000000    0.2500000000    0.0019531250
   0.2500000000   -0.2500000000    0.3750000000    0.0019531250
   0.2500000000   -0.2500000000   -0.5000000000    0.0019531250
   0.2500000000   -0.2500000000   -0.3750000000    0.0019531250
   0.2500000000   -0.2500000000   -0.2500000000    0.0019531250
   0.2500000000   -0.2500000000   -0.1250000000    0.0019531250
   0.2500000000   -0.1250000000    0.0000000000    0.0019531250
   0.2500000000   -0.1250000000    0.1250000000    0.0019531250
   0.2500000000   -0.1250000000    0.2500000000    0.0019531250
   0.2500000000   -0.1250000000    0.3750000000    0.0019531250
   0.2500000000   -0.1250000000   -0.5000000000    0.0019531250
   0.2500000000   -0.1250000000   -0.3750000000    0.0019531250
   0.2500000000   -0.1250000000   -0.2500000000    0.0019531250
   0.2500000000   -0.1250000000   -0.1250000000    0.0019531250
   0.3750000000    0.0000000000    0.0000000000    0.0019531250
   0.3750000000    0.0000000000    0.1250000000    0.0019531250
   0.3750000000    0.0000000000    0.2500000000    0.0019531250
   0.3750000000    0.0000000000    0.3750000000    0.0019531250
   0.3750000000    0.0000000000   -0.5000000000    0.0019531250
   0.3750000000    0.0000000000   -0.3750000000    0.0019531250
   0.3750000000    0.0000000000   -0.2500000000    0.0019531250
   0.3750000000    0.0000000000   -0.1250000000    0.0019531250
   0.3750000000    0.1250000000    0.0000000000    0.0019531250
   0.3750000000    0.1250000000    0.1250000000    0.0019531250
   0.3750000000    0.1250000000    0.2500000000    0.0019531250
   0.3750000000    0.1250000000    0.3750000000    0.0019531250
   0.3750000000    0.1250000000   -0.5000000000    0.0019531250
   0.3750000000    0.1250000000   -0.3750000000    0.0019531250
   0.3750000000    0.1250000000   -0.2500000000    0.0019531250
   0.3750000000    0.1250000000   -0.1250000000    0.0019531250
   0.3750000000    0.2500000000    0.0000000000    0.0019531250
   0.3750000000    0.2500000000    0.1250000000    0.0019531250
   0.3750000000    0.2500000000    0.2500000000    0.0019531250
   0.3750000000    0.2500000000    0.3750000000    0.0019531250
   0.3750000000    0.2500000000   -0.5000000000    0.0019531250
   0.3750000000    0.2500000000   -0.3750000000    0.0019531250
   0.3750000000    0.2500000000   -0.2500000000    0.0019531250
   0.3750000000    0.2500000000   -0.1250000000    0.0019531250
   0.3750000000    0.3750000000    0.0000000000    0.0019531250
   0.3750000000    0.3750000000    0.1250000000    0.0019531250
   0.3750000000    0.3750000000    0.2500000000    0.0019531250
   0.3750000000    0.3750000000    0.3750000000    0.0019531250
   0.3750000000    0.3750000000   -0.5000000000    0.0019531250
   0.3750000000    0.3750000000   -0.3750000000    0.0019531250
   0.3750000000    0.3750000000   -0.2500000000    0.0019531250
   0.3750000000    0.3750000000   -0.1250000000    0.0019531250
   0.3750000000   -0.5000000000    0.0000000000    0.0019531250
   0.3750000000   -0.5000000000    0.1250000000    0.0019531250
   0.3750000000   -0.5000000000    0.2500000000    0.0019531250
   0.3750000000   -0.5000000000    0.3750000000    0.0019531250
   0.3750000000   -0.5000000000   -0.5000000000    0.0019531250
   0.3750000000   -0.5000000000   -0.3750000000    0.0019531250
   0.3750000000   -0.5000000000   -0.2500000000    0.0019531250
   0.3750000000   -0.5000000000   -0.1250000000    0.0019531250
   0.3750000000   -0.3750000000    0.0000000000    0.0019531250
   0.3750000000   -0.3750000000    0.1250000000    0.0019531250
   0.3750000000   -0.3750000000    0.2500000000    0.0019531250
   0.3750000000   -0.3750000000    0.3750000000    0.0019531250
   0.3750000000   -0.3750000000   -0.5000000000    0.0019531250
   0.3750000000   -0.3750000000   -0.3750000000    0.0019531250
   0.3750000000   -0.3750000000   -0.2500000000    0.0019531250
   0.3750000000   -0.3750000000   -0.1250000000    0.0019531250
   0.3750000000   -0.2500000000    0.0000000000    0.0019531250
   0.3750000000   -0.2500000000    0.1250000000    0.0019531250
   0.3750000000   -0.2500000000    0.2500000000    0.0019531250
   0.3750000000   -0.2500000000    0.3750000000    0.0019531250
   0.3750000000   -0.2500000000   -0.5000000000    0.0019531250
   0.3750000000   -0.2500000000   -0.3750000000    0.0019531250
   0.3750000000   -0.2500000000   -0.2500000000    0.0019531250
   0.3750000000   -0.2500000000   -0.1250000000    0.0019531250
   0.3750000000   -0.1250000000    0.0000000000    0.0019531250
   0.3750000000   -0.1250000000    0.1250000000    0.0019531250
   0.3750000000   -0.1250000000    0.2500000000    0.0019531250
   0.3750000000   -0.1250000000    0.3750000000    0.0019531250
   0.3750000000   -0.1250000000   -0.5000000000    0.0019531250
   0.3750000000   -0.1250000000   -0.3750000000    0.0019531250
   0.3750000000   -0.1250000000   -0.2500000000    0.0019531250
   0.3750000000   -0.1250000000   -0.1250000000    0.0019531250
  -0.5000000000    0.0000000000    0.0000000000    0.0019531250
  -0.5000000000    0.0000000000    0.1250000000    0.0019531250
  -0.5000000000    0.0000000000    0.2500000000    0.0019531250
  -0.5000000000    0.0000000000    0.3750000000    0.0019531250
  -0.5000000000    0.0000000000   -0.5000000000    0.0019531250
  -0.5000000000    0.0000000000   -0.3750000000    0.0019531250
  -0.5000000000    0.0000000000   -0.2500000000    0.0019531250
  -0.5000000000    0.0000000000   -0.1250000000    0.0019531250
  -0.5000000000    0.1250000000    0.0000000000    0.0019531250
  -0.5000000000    0.1250000000    0.1250000000    0.0019531250
  -0.5000000000    0.1250000000    0.2500000000    0.0019531250
  -0.5000000000    0.1250000000    0.3750000000    0.0019531250
  -0.5000000000    0.1250000000   -0.5000000000    0.0019531250
  -0.5000000000    0.1250000000   -0.3750000000    0.0019531250
  -0.5000000000    0.1250000000   -0.2500000000    0.0019531250
  -0.5000000000    0.1250000000   -0.1250000000    0.0019531250
  -0.5000000000    0.2500000000    0.0000000000    0.0019531250
  -0.5000000000    0.2500000000    0.1250000000    0.0019531250
  -0.5000000000    0.2500000000    0.2500000000    0.0019531250
  -0.5000000000    0.2500000000    0.3750000000    0.0019531250
  -0.5000000000    0.2500000000   -0.5000000000    0.0019531250
  -0.5000000000    0.2500000000   -0.3750000000    0.0019531250
  -0.5000000000    0.2500000000   -0.2500000000    0.0019531250
  -0.5000000000    0.2500000000   -0.1250000000    0.0019531250
  -0.5000000000    0.3750000000    0.0000000000    0.0019531250
  -0.5000000000    0.3750000000    0.1250000000    0.0019531250
  -0.5000000000    0.3750000000    0.2500000000    0.0019531250
  -0.5000000000    0.3750000000    0.3750000000    0.0019531250
  -0.5000000000    0.3750000000   -0.5000000000    0.0019531250
  -0.5000000000    0.3750000000   -0.3750000000    0.0019531250
  -0.5000000000    0.3750000000   -0.2500000000    0.0019531250
  -0.5000000000    0.3750000000   -0.1250000000    0.0019531250
  -0.5000000000   -0.5000000000    0.0000000000    0.0019531250
  -0.5000000000   -0.5000000000    0.1250000000    0.0019531250
  -0.5000000000   -0.5000000000    0.2500000000    0.0019531250
  -0.5000000000   -0.5000000000    0.3750000000    0.0019531250
  -0.5000000000   -0.5000000000   -0.5000000000    0.0019531250
  -0.5000000000   -0.5000000000   -0.3750000000    0.0019531250
  -0.5000000000   -0.5000000000   -0.2500000000    0.0019531250
  -0.5000000000   -0.5000000000   -0.1250000000    0.0019531250
  -0.5000000000   -0.3750000000    0.0000000000    0.0019531250
  -0.5000000000   -0.3750000000    0.1250000000    0.0019531250
  -0.5000000000   -0.3750000000    0.2500000000    0.0019531250
  -0.5000000000   -0.3750000000    0.3750000000    0.0019531250
  -0.5000000000   -0.3750000000   -0.5000000000    0.0019531250
  -0.5000000000   -0.3750000000   -0.3750000000    0.0019531250
  -0.5000000000   -0.3750000000   -0.2500000000    0.0019531250
  -0.5000000000   -0.3750000000   -0.1250000000    0.0019531250
  -0.5000000000   -0.2500000000    0.0000000000    0.0019531250
  -0.5000000000   -0.2500000000    0.1250000000    0.0019531250
  -0.5000000000   -0.2500000000    0.2500000000    0.0019531250
  -0.5000000000   -0.2500000000    0.3750000000    0.0019531250
  -0.5000000000   -0.2500000000   -0.5000000000    0.0019531250
  -0.5000000000   -0.2500000000   -0.3750000000    0.0019531250
  -0.5000000000   -0.2500000000   -0.2500000000    0.0019531250
  -0.5000000000   -0.2500000000   -0.1250000000    0.0019531250
  -0.5000000000   -0.1250000000    0.0000000000    0.0019531250
  -0.5000000000   -0.1250000000    0.1250000000    0.0019531250
  -0.5000000000   -0.1250000000    0.2500000000    0.0019531250
  -0.5000000000   -0.1250000000    0.3750000000    0.0019531250
  -0.5000000000   -0.1250000000   -0.5000000000    0.0019531250
  -0.5000000000   -0.1250000000   -0.3750000000    0.0019531250
  -0.5000000000   -0.1250000000   -0.2500000000    0.0019531250
  -0.5000000000   -0.1250000000   -0.1250000000    0.0019531250
  -0.3750000000    0.0000000000    0.0000000000    0.0019531250
  -0.3750000000    0.0000000000    0.1250000000    0.0019531250
  -0.3750000000    0.0000000000    0.2500000000    0.0019531250
  -0.3750000000    0.0000000000    0.3750000000    0.0019531250
  -0.3750000000    0.0000000000   -0.5000000000    0.0019531250
  -0.3750000000    0.0000000000   -0.3750000000    0.0019531250
  -0.3750000000    0.0000000000   -0.2500000000    0.0019531250
  -0.3750000000    0.0000000000   -0.1250000000    0.0019531250
  -0.3750000000    0.1250000000    0.0000000000    0.0019531250
  -0.3750000000    0.1250000000    0.1250000000    0.0019531250
  -0.3750000000    0.1250000000    0.2500000000    0.0019531250
  -0.3750000000    0.1250000000    0.3750000000    0.0019531250
  -0.3750000000    0.1250000000   -0.5000000000    0.0019531250
  -0.3750000000    0.1250000000   -0.3750000000    0.0019531250
  -0.3750000000    0.1250000000   -0.2500000000    0.0019531250
  -0.3750000000    0.1250000000   -0.1250000000    0.0019531250
  -0.3750000000    0.2500000000    0.0000000000    0.0019531250
  -0.3750000000    0.2500000000    0.1250000000    0.0019531250
  -0.3750000000    0.2500000000    0.2500000000    0.0019531250
  -0.3750000000    0.2500000000    0.3750000000    0.0019531250
  -0.3750000000    0.2500000000   -0.5000000000    0.0019531250
  -0.3750000000    0.2500000000   -0.3750000000    0.0019531250
  -0.3750000000    0.2500000000   -0.2500000000    0.0019531250
  -0.3750000000    0.2500000000   -0.1250000000    0.0019531250
  -0.3750000000    0.3750000000    0.0000000000    0.0019531250
  -0.3750000000    0.3750000000    0.1250000000    0.0019531250
  -0.3750000000    0.3750000000    0.2500000000    0.0019531250
  -0.3750000000    0.3750000000    0.3750000000    0.0019531250
  -0.3750000000    0.3750000000   -0.5000000000    0.0019531250
  -0.3750000000    0.3750000000   -0.3750000000    0.0019531250
  -0.3750000000    0.3750000000   -0.2500000000    0.0019531250
  -0.3750000000    0.3750000000   -0.1250000000    0.0019531250
  -0.3750000000   -0.5000000000    0.0000000000    0.0019531250
  -0.3750000000   -0.5000000000    0.1250000000    0.0019531250
  -0.3750000000   -0.5000000000    0.2500000000    0.0019531250
  -0.3750000000   -0.5000000000    0.3750000000    0.0019531250
  -0.3750000000   -0.5000000000   -0.5000000000    0.0019531250
  -0.3750000000   -0.5000000000   -0.3750000000    0.0019531250
  -0.3750000000   -0.5000000000   -0.2500000000    0.0019531250
  -0.3750000000   -0.5000000000   -0.1250000000    0.0019531250
  -0.3750000000   -0.3750000000    0.0000000000    0.0019531250
  -0.3750000000   -0.3750000000    0.1250000000    0.0019531250
  -0.3750000000   -0.3750000000    0.2500000000    0.0019531250
  -0.3750000000   -0.3750000000    0.3750000000    0.0019531250
  -0.3750000000   -0.3750000000   -0.5000000000    0.0019531250
  -0.3750000000   -0.3750000000   -0.3750000000    0.0019531250
  -0.3750000000   -0.3750000000   -0.2500000000    0.0019531250
  -0.3750000000   -0.3750000000   -0.1250000000    0.0019531250
  -0.3750000000   -0.2500000000    0.0000000000    0.0019531250
  -0.3750000000   -0.2500000000    0.1250000000    0.0019531250
  -0.3750000000   -0.2500000000    0.2500000000    0.0019531250
  -0.3750000000   -0.2500000000    0.3750000000    0.0019531250
  -0.3750000000   -0.2500000000   -0.5000000000    0.0019531250
  -0.3750000000   -0.2500000000   -0.3750000000    0.0019531250
  -0.3750000000   -0.2500000000   -0.2500000000    0.0019531250
  -0.3750000000   -0.2500000000   -0.1250000000    0.0019531250
  -0.3750000000   -0.1250000000    0.0000000000    0.0019531250
  -0.3750000000   -0.1250000000    0.1250000000    0.0019531250
  -0.3750000000   -0.1250000000    0.2500000000    0.0019531250
  -0.3750000000   -0.1250000000    0.3750000000    0.0019531250
  -0.3750000000   -0.1250000000   -0.5000000000    0.0019531250
  -0.3750000000   -0.1250000000   -0.3750000000    0.0019531250
  -0.3750000000   -0.1250000000   -0.2500000000    0.0019531250
  -0.3750000000   -0.1250000000   -0.1250000000    0.0019531250
  -0.2500000000    0.0000000000    0.0000000000    0.0019531250
  -0.2500000000    0.0000000000    0.1250000000    0.0019531250
  -0.2500000000    0.0000000000    0.2500000000    0.0019531250
  -0.2500000000    0.0000000000    0.3750000000    0.0019531250
  -0.2500000000    0.0000000000   -0.5000000000    0.0019531250
  -0.2500000000    0.0000000000   -0.3750000000    0.0019531250
  -0.2500000000    0.0000000000   -0.2500000000    0.0019531250
  -0.2500000000    0.0000000000   -0.1250000000    0.0019531250
  -0.2500000000    0.1250000000    0.0000000000    0.0019531250
  -0.2500000000    0.1250000000    0.1250000000    0.0019531250
  -0.2500000000    0.1250000000    0.2500000000    0.0019531250
  -0.2500000000    0.1250000000    0.3750000000    0.0019531250
  -0.2500000000    0.1250000000   -0.5000000000    0.0019531250
  -0.2500000000    0.1250000000   -0.3750000000    0.0019531250
  -0.2500000000    0.1250000000   -0.2500000000    0.0019531250
  -0.2500000000    0.1250000000   -0.1250000000    0.0019531250
  -0.2500000000    0.2500000000    0.0000000000    0.0019531250
  -0.2500000000    0.2500000000    0.1250000000    0.0019531250
  -0.2500000000    0.2500000000    0.2500000000    0.0019531250
  -0.2500000000    0.2500000000    0.3750000000    0.0019531250
  -0.2500000000    0.2500000000   -0.5000000000    0.0019531250
  -0.2500000000    0.2500000000   -0.3750000000    0.0019531250
  -0.2500000000    0.2500000000   -0.2500000000    0.0019531250
  -0.2500000000    0.2500000000   -0.1250000000    0.0019531250
  -0.2500000000    0.3750000000    0.0000000000    0.0019531250
  -0.2500000000    0.3750000000    0.1250000000    0.0019531250
  -0.2500000000    0.3750000000    0.2500000000    0.0019531250
  -0.2500000000    0.3750000000    0.3750000000    0.0019531250
  -0.2500000000    0.3750000000   -0.5000000000    0.0019531250
  -0.2500000000    0.3750000000   -0.3750000000    0.0019531250
  -0.2500000000    0.3750000000   -0.2500000000    0.0019531250
  -0.2500000000    0.3750000000   -0.1250000000    0.0019531250
  -0.2500000000   -0.5000000000    0.0000000000    0.0019531250
  -0.2500000000   -0.5000000000    0.1250000000    0.0019531250
  -0.2500000000   -0.5000000000    0.2500000000    0.0019531250
  -0.2500000000   -0.5000000000    0.3750000000    0.0019531250
  -0.2500000000   -0.5000000000   -0.5000000000    0.0019531250
  -0.2500000000   -0.5000000000   -0.3750000000    0.0019531250
  -0.2500000000   -0.5000000000   -0.2500000000    0.0019531250
  -0.2500000000   -0.5000000000   -0.1250000000    0.0019531250
  -0.2500000000   -0.3750000000    0.0000000000    0.0019531250
  -0.2500000000   -0.3750000000    0.1250000000    0.0019531250
  -0.2500000000   -0.3750000000    0.2500000000    0.0019531250
  -0.2500000000   -0.3750000000    0.3750000000    0.0019531250
  -0.2500000000   -0.3750000000   -0.5000000000    0.0019531250
  -0.2500000000   -0.3750000000   -0.3750000000    0.0019531250
  -0.2500000000   -0.3750000000   -0.2500000000    0.0019531250
  -0.2500000000   -0.3750000000   -0.1250000000    0.0019531250
  -0.2500000000   -0.2500000000    0.0000000000    0.0019531250
  -0.2500000000   -0.2500000000    0.1250000000    0.0019531250
  -0.2500000000   -0.2500000000    0.2500000000    0.0019531250
  -0.2500000000   -0.2500000000    0.3750000000    0.0019531250
  -0.2500000000   -0.2500000000   -0.5000000000    0.0019531250
  -0.2500000000   -0.2500000000   -0.3750000000    0.0019531250
  -0.2500000000   -0.2500000000   -0.2500000000    0.0019531250
  -0.2500000000   -0.2500000000   -0.1250000000    0.0019531250
  -0.2500000000   -0.1250000000    0.0000000000    0.0019531250
  -0.2500000000   -0.1250000000    0.1250000000    0.0019531250
  -0.2500000000   -0.1250000000    0.2500000000    0.0019531250
  -0.2500000000   -0.1250000000    0.3750000000    0.0019531250
  -0.2500000000   -0.1250000000   -0.5000000000    0.0019531250
  -0.2500000000   -0.1250000000   -0.3750000000    0.0019531250
  -0.2500000000   -0.1250000000   -0.2500000000    0.0019531250
  -0.2500000000   -0.1250000000   -0.1250000000    0.0019531250
  -0.1250000000    0.0000000000    0.0000000000    0.0019531250
  -0.1250000000    0.0000000000    0.1250000000    0.0019531250
  -0.1250000000    0.0000000000    0.2500000000    0.0019531250
  -0.1250000000    0.0000000000    0.3750000000    0.0019531250
  -0.1250000000    0.0000000000   -0.5000000000    0.0019531250
  -0.1250000000    0.0000000000   -0.3750000000    0.0019531250
  -0.1250000000    0.0000000000   -0.2500000000    0.0019531250
  -0.1250000000    0.0000000000   -0.1250000000    0.0019531250
  -0.1250000000    0.1250000000    0.0000000000    0.0019531250
  -0.1250000000    0.1250000000    0.1250000000    0.0019531250
  -0.1250000000    0.1250000000    0.2500000000    0.0019531250
  -0.1250000000    0.1250000000    0.3750000000    0.0019531250